* #variable= 108 #constraint= 36 #product= 324 sizeproduct= 648
min: +1 x1 x7 -1 x1 x4 -1 x1 x10 +1 x1 x19 +1 x1 x28 +1 x1 x82 -1 x2 x5 +1 x2 x8 -1 x2 x11 +1 x2 x20 +1 x2 x29 +1 x2 x83 -1 x3 x6 +1 x3 x9 -1 x3 x12 +1 x3 x21 +1 x3 x30 +1 x3 x84 -1 x4 x7 -1 x4 x13 -1 x4 x22 -1 x4 x31 +1 x4 x85 -1 x5 x8 -1 x5 x14 -1 x5 x23 -1 x5 x32 +1 x5 x86 -1 x6 x9 -1 x6 x15 -1 x6 x24 -1 x6 x33 +1 x6 x87 +1 x7 x16 -1 x7 x25 +1 x7 x34 +1 x7 x88 +1 x8 x17 -1 x8 x26 +1 x8 x35 +1 x8 x89 +1 x9 x18 -1 x9 x27 +1 x9 x36 +1 x9 x90 +1 x10 x13 -1 x10 x16 +1 x10 x19 +1 x10 x37 -1 x10 x91 +1 x11 x14 -1 x11 x17 +1 x11 x20 +1 x11 x38 -1 x11 x92 +1 x12 x15 -1 x12 x18 +1 x12 x21 +1 x12 x39 -1 x12 x93 -1 x13 x16 +1 x13 x22 +1 x13 x40 +1 x13 x94 -1 x14 x17 +1 x14 x23 +1 x14 x41 +1 x14 x95 -1 x15 x18 +1 x15 x24 +1 x15 x42 +1 x15 x96 +1 x16 x25 +1 x16 x43 -1 x16 x97 +1 x17 x26 +1 x17 x44 -1 x17 x98 +1 x18 x27 +1 x18 x45 -1 x18 x99 -1 x19 x22 -1 x19 x25 +1 x19 x46 -1 x19 x100 -1 x20 x23 -1 x20 x26 +1 x20 x47 -1 x20 x101 -1 x21 x24 -1 x21 x27 +1 x21 x48 -1 x21 x102 -1 x22 x25 -1 x22 x49 +1 x22 x103 -1 x23 x26 -1 x23 x50 +1 x23 x104 -1 x24 x27 -1 x24 x51 +1 x24 x105 +1 x25 x52 +1 x25 x106 +1 x26 x53 +1 x26 x107 +1 x27 x54 +1 x27 x108 -1 x28 x31 -1 x28 x34 -1 x28 x37 +1 x28 x46 -1 x28 x55 -1 x29 x32 -1 x29 x35 -1 x29 x38 +1 x29 x47 -1 x29 x56 -1 x30 x33 -1 x30 x36 -1 x30 x39 +1 x30 x48 -1 x30 x57 -1 x31 x34 +1 x31 x40 +1 x31 x49 -1 x31 x58 -1 x32 x35 +1 x32 x41 +1 x32 x50 -1 x32 x59 -1 x33 x36 +1 x33 x42 +1 x33 x51 -1 x33 x60 +1 x34 x43 +1 x34 x52 +1 x34 x61 +1 x35 x44 +1 x35 x53 +1 x35 x62 +1 x36 x45 +1 x36 x54 +1 x36 x63 +1 x37 x40 -1 x37 x43 -1 x37 x46 +1 x37 x64 +1 x38 x41 -1 x38 x44 -1 x38 x47 +1 x38 x65 +1 x39 x42 -1 x39 x45 -1 x39 x48 +1 x39 x66 -1 x40 x43 +1 x40 x49 +1 x40 x67 -1 x41 x44 +1 x41 x50 +1 x41 x68 -1 x42 x45 +1 x42 x51 +1 x42 x69 -1 x43 x52 -1 x43 x70 -1 x44 x53 -1 x44 x71 -1 x45 x54 -1 x45 x72 +1 x46 x49 +1 x46 x52 +1 x46 x73 +1 x47 x50 +1 x47 x53 +1 x47 x74 +1 x48 x51 +1 x48 x54 +1 x48 x75 +1 x49 x52 -1 x49 x76 +1 x50 x53 -1 x50 x77 +1 x51 x54 -1 x51 x78 -1 x52 x79 -1 x53 x80 -1 x54 x81 -1 x55 x58 -1 x55 x61 +1 x55 x64 -1 x55 x73 +1 x55 x82 -1 x56 x59 -1 x56 x62 +1 x56 x65 -1 x56 x74 +1 x56 x83 -1 x57 x60 -1 x57 x63 +1 x57 x66 -1 x57 x75 +1 x57 x84 +1 x58 x61 -1 x58 x67 +1 x58 x76 -1 x58 x85 +1 x59 x62 -1 x59 x68 +1 x59 x77 -1 x59 x86 +1 x60 x63 -1 x60 x69 +1 x60 x78 -1 x60 x87 +1 x61 x70 -1 x61 x79 -1 x61 x88 +1 x62 x71 -1 x62 x80 -1 x62 x89 +1 x63 x72 -1 x63 x81 -1 x63 x90 +1 x64 x67 +1 x64 x70 +1 x64 x73 -1 x64 x91 +1 x65 x68 +1 x65 x71 +1 x65 x74 -1 x65 x92 +1 x66 x69 +1 x66 x72 +1 x66 x75 -1 x66 x93 +1 x67 x70 +1 x67 x76 +1 x67 x94 +1 x68 x71 +1 x68 x77 +1 x68 x95 +1 x69 x72 +1 x69 x78 +1 x69 x96 -1 x70 x79 -1 x70 x97 -1 x71 x80 -1 x71 x98 -1 x72 x81 -1 x72 x99 -1 x73 x76 -1 x73 x79 -1 x73 x100 -1 x74 x77 -1 x74 x80 -1 x74 x101 -1 x75 x78 -1 x75 x81 -1 x75 x102 -1 x76 x79 -1 x76 x103 -1 x77 x80 -1 x77 x104 -1 x78 x81 -1 x78 x105 -1 x79 x106 -1 x80 x107 -1 x81 x108 -1 x82 x85 -1 x82 x88 +1 x82 x91 +1 x82 x100 -1 x83 x86 -1 x83 x89 +1 x83 x92 +1 x83 x101 -1 x84 x87 -1 x84 x90 +1 x84 x93 +1 x84 x102 +1 x85 x88 -1 x85 x94 +1 x85 x103 +1 x86 x89 -1 x86 x95 +1 x86 x104 +1 x87 x90 -1 x87 x96 +1 x87 x105 -1 x88 x97 -1 x88 x106 -1 x89 x98 -1 x89 x107 -1 x90 x99 -1 x90 x108 -1 x91 x94 +1 x91 x97 -1 x91 x100 -1 x92 x95 +1 x92 x98 -1 x92 x101 -1 x93 x96 +1 x93 x99 -1 x93 x102 +1 x94 x97 -1 x94 x103 +1 x95 x98 -1 x95 x104 +1 x96 x99 -1 x96 x105 +1 x97 x106 +1 x98 x107 +1 x99 x108 +1 x100 x103 -1 x100 x106 +1 x101 x104 -1 x101 x107 +1 x102 x105 -1 x102 x108 +1 x103 x106 +1 x104 x107 +1 x105 x108 ;
+1 x1 +1 x2 +1 x3 = 1 ;
+1 x4 +1 x5 +1 x6 = 1 ;
+1 x7 +1 x8 +1 x9 = 1 ;
+1 x10 +1 x11 +1 x12 = 1 ;
+1 x13 +1 x14 +1 x15 = 1 ;
+1 x16 +1 x17 +1 x18 = 1 ;
+1 x19 +1 x20 +1 x21 = 1 ;
+1 x22 +1 x23 +1 x24 = 1 ;
+1 x25 +1 x26 +1 x27 = 1 ;
+1 x28 +1 x29 +1 x30 = 1 ;
+1 x31 +1 x32 +1 x33 = 1 ;
+1 x34 +1 x35 +1 x36 = 1 ;
+1 x37 +1 x38 +1 x39 = 1 ;
+1 x40 +1 x41 +1 x42 = 1 ;
+1 x43 +1 x44 +1 x45 = 1 ;
+1 x46 +1 x47 +1 x48 = 1 ;
+1 x49 +1 x50 +1 x51 = 1 ;
+1 x52 +1 x53 +1 x54 = 1 ;
+1 x55 +1 x56 +1 x57 = 1 ;
+1 x58 +1 x59 +1 x60 = 1 ;
+1 x61 +1 x62 +1 x63 = 1 ;
+1 x64 +1 x65 +1 x66 = 1 ;
+1 x67 +1 x68 +1 x69 = 1 ;
+1 x70 +1 x71 +1 x72 = 1 ;
+1 x73 +1 x74 +1 x75 = 1 ;
+1 x76 +1 x77 +1 x78 = 1 ;
+1 x79 +1 x80 +1 x81 = 1 ;
+1 x82 +1 x83 +1 x84 = 1 ;
+1 x85 +1 x86 +1 x87 = 1 ;
+1 x88 +1 x89 +1 x90 = 1 ;
+1 x91 +1 x92 +1 x93 = 1 ;
+1 x94 +1 x95 +1 x96 = 1 ;
+1 x97 +1 x98 +1 x99 = 1 ;
+1 x100 +1 x101 +1 x102 = 1 ;
+1 x103 +1 x104 +1 x105 = 1 ;
+1 x106 +1 x107 +1 x108 = 1 ;
